c File: flat50_3_0.col
c
c SOURCE: Joseph Culberson (joe@cs.ualberta.ca)
c DESCRIPTION: Quasi-random coloring problem
c              generated with flatness = 0
c                             probability = 0.139
c                             known coloring = 3
c                             random seed = 1255
c              Creation Date:  Tue Jun  9 12:04:54 1998
c Maximum degree = 8 Minimum degree = 1
c p edge 50 115
c cnf created by edge2cnf
p cnf 150 545
-1 -2 0
-1 -3 0
-2 -3 0
1 2 3 0
-4 -5 0
-4 -6 0
-5 -6 0
4 5 6 0
-7 -8 0
-7 -9 0
-8 -9 0
7 8 9 0
-10 -11 0
-10 -12 0
-11 -12 0
10 11 12 0
-13 -14 0
-13 -15 0
-14 -15 0
13 14 15 0
-16 -17 0
-16 -18 0
-17 -18 0
16 17 18 0
-19 -20 0
-19 -21 0
-20 -21 0
19 20 21 0
-22 -23 0
-22 -24 0
-23 -24 0
22 23 24 0
-25 -26 0
-25 -27 0
-26 -27 0
25 26 27 0
-28 -29 0
-28 -30 0
-29 -30 0
28 29 30 0
-31 -32 0
-31 -33 0
-32 -33 0
31 32 33 0
-34 -35 0
-34 -36 0
-35 -36 0
34 35 36 0
-37 -38 0
-37 -39 0
-38 -39 0
37 38 39 0
-40 -41 0
-40 -42 0
-41 -42 0
40 41 42 0
-43 -44 0
-43 -45 0
-44 -45 0
43 44 45 0
-46 -47 0
-46 -48 0
-47 -48 0
46 47 48 0
-49 -50 0
-49 -51 0
-50 -51 0
49 50 51 0
-52 -53 0
-52 -54 0
-53 -54 0
52 53 54 0
-55 -56 0
-55 -57 0
-56 -57 0
55 56 57 0
-58 -59 0
-58 -60 0
-59 -60 0
58 59 60 0
-61 -62 0
-61 -63 0
-62 -63 0
61 62 63 0
-64 -65 0
-64 -66 0
-65 -66 0
64 65 66 0
-67 -68 0
-67 -69 0
-68 -69 0
67 68 69 0
-70 -71 0
-70 -72 0
-71 -72 0
70 71 72 0
-73 -74 0
-73 -75 0
-74 -75 0
73 74 75 0
-76 -77 0
-76 -78 0
-77 -78 0
76 77 78 0
-79 -80 0
-79 -81 0
-80 -81 0
79 80 81 0
-82 -83 0
-82 -84 0
-83 -84 0
82 83 84 0
-85 -86 0
-85 -87 0
-86 -87 0
85 86 87 0
-88 -89 0
-88 -90 0
-89 -90 0
88 89 90 0
-91 -92 0
-91 -93 0
-92 -93 0
91 92 93 0
-94 -95 0
-94 -96 0
-95 -96 0
94 95 96 0
-97 -98 0
-97 -99 0
-98 -99 0
97 98 99 0
-100 -101 0
-100 -102 0
-101 -102 0
100 101 102 0
-103 -104 0
-103 -105 0
-104 -105 0
103 104 105 0
-106 -107 0
-106 -108 0
-107 -108 0
106 107 108 0
-109 -110 0
-109 -111 0
-110 -111 0
109 110 111 0
-112 -113 0
-112 -114 0
-113 -114 0
112 113 114 0
-115 -116 0
-115 -117 0
-116 -117 0
115 116 117 0
-118 -119 0
-118 -120 0
-119 -120 0
118 119 120 0
-121 -122 0
-121 -123 0
-122 -123 0
121 122 123 0
-124 -125 0
-124 -126 0
-125 -126 0
124 125 126 0
-127 -128 0
-127 -129 0
-128 -129 0
127 128 129 0
-130 -131 0
-130 -132 0
-131 -132 0
130 131 132 0
-133 -134 0
-133 -135 0
-134 -135 0
133 134 135 0
-136 -137 0
-136 -138 0
-137 -138 0
136 137 138 0
-139 -140 0
-139 -141 0
-140 -141 0
139 140 141 0
-142 -143 0
-142 -144 0
-143 -144 0
142 143 144 0
-145 -146 0
-145 -147 0
-146 -147 0
145 146 147 0
-148 -149 0
-148 -150 0
-149 -150 0
148 149 150 0
-58 -1 0
-59 -2 0
-60 -3 0
-64 -1 0
-65 -2 0
-66 -3 0
-82 -1 0
-83 -2 0
-84 -3 0
-97 -1 0
-98 -2 0
-99 -3 0
-118 -1 0
-119 -2 0
-120 -3 0
-106 -4 0
-107 -5 0
-108 -6 0
-52 -7 0
-53 -8 0
-54 -9 0
-55 -7 0
-56 -8 0
-57 -9 0
-58 -7 0
-59 -8 0
-60 -9 0
-70 -7 0
-71 -8 0
-72 -9 0
-103 -7 0
-104 -8 0
-105 -9 0
-142 -7 0
-143 -8 0
-144 -9 0
-67 -10 0
-68 -11 0
-69 -12 0
-79 -10 0
-80 -11 0
-81 -12 0
-88 -10 0
-89 -11 0
-90 -12 0
-124 -10 0
-125 -11 0
-126 -12 0
-127 -10 0
-128 -11 0
-129 -12 0
-94 -13 0
-95 -14 0
-96 -15 0
-145 -13 0
-146 -14 0
-147 -15 0
-52 -16 0
-53 -17 0
-54 -18 0
-73 -16 0
-74 -17 0
-75 -18 0
-88 -16 0
-89 -17 0
-90 -18 0
-145 -16 0
-146 -17 0
-147 -18 0
-148 -16 0
-149 -17 0
-150 -18 0
-64 -19 0
-65 -20 0
-66 -21 0
-73 -19 0
-74 -20 0
-75 -21 0
-82 -19 0
-83 -20 0
-84 -21 0
-91 -19 0
-92 -20 0
-93 -21 0
-124 -19 0
-125 -20 0
-126 -21 0
-130 -19 0
-131 -20 0
-132 -21 0
-88 -22 0
-89 -23 0
-90 -24 0
-94 -22 0
-95 -23 0
-96 -24 0
-115 -22 0
-116 -23 0
-117 -24 0
-130 -22 0
-131 -23 0
-132 -24 0
-58 -25 0
-59 -26 0
-60 -27 0
-61 -25 0
-62 -26 0
-63 -27 0
-100 -25 0
-101 -26 0
-102 -27 0
-103 -25 0
-104 -26 0
-105 -27 0
-79 -28 0
-80 -29 0
-81 -30 0
-106 -28 0
-107 -29 0
-108 -30 0
-127 -28 0
-128 -29 0
-129 -30 0
-133 -28 0
-134 -29 0
-135 -30 0
-142 -28 0
-143 -29 0
-144 -30 0
-70 -31 0
-71 -32 0
-72 -33 0
-79 -31 0
-80 -32 0
-81 -33 0
-106 -31 0
-107 -32 0
-108 -33 0
-148 -31 0
-149 -32 0
-150 -33 0
-82 -34 0
-83 -35 0
-84 -36 0
-106 -34 0
-107 -35 0
-108 -36 0
-82 -37 0
-83 -38 0
-84 -39 0
-91 -37 0
-92 -38 0
-93 -39 0
-94 -37 0
-95 -38 0
-96 -39 0
-121 -37 0
-122 -38 0
-123 -39 0
-58 -40 0
-59 -41 0
-60 -42 0
-76 -40 0
-77 -41 0
-78 -42 0
-100 -40 0
-101 -41 0
-102 -42 0
-109 -40 0
-110 -41 0
-111 -42 0
-127 -40 0
-128 -41 0
-129 -42 0
-133 -40 0
-134 -41 0
-135 -42 0
-139 -40 0
-140 -41 0
-141 -42 0
-70 -43 0
-71 -44 0
-72 -45 0
-103 -43 0
-104 -44 0
-105 -45 0
-109 -43 0
-110 -44 0
-111 -45 0
-121 -43 0
-122 -44 0
-123 -45 0
-133 -43 0
-134 -44 0
-135 -45 0
-70 -46 0
-71 -47 0
-72 -48 0
-79 -46 0
-80 -47 0
-81 -48 0
-85 -46 0
-86 -47 0
-87 -48 0
-121 -46 0
-122 -47 0
-123 -48 0
-124 -46 0
-125 -47 0
-126 -48 0
-130 -46 0
-131 -47 0
-132 -48 0
-145 -46 0
-146 -47 0
-147 -48 0
-61 -49 0
-62 -50 0
-63 -51 0
-88 -49 0
-89 -50 0
-90 -51 0
-103 -49 0
-104 -50 0
-105 -51 0
-115 -49 0
-116 -50 0
-117 -51 0
-124 -49 0
-125 -50 0
-126 -51 0
-145 -49 0
-146 -50 0
-147 -51 0
-109 -52 0
-110 -53 0
-111 -54 0
-148 -52 0
-149 -53 0
-150 -54 0
-103 -55 0
-104 -56 0
-105 -57 0
-148 -55 0
-149 -56 0
-150 -57 0
-121 -58 0
-122 -59 0
-123 -60 0
-109 -61 0
-110 -62 0
-111 -63 0
-115 -61 0
-116 -62 0
-117 -63 0
-130 -61 0
-131 -62 0
-132 -63 0
-142 -61 0
-143 -62 0
-144 -63 0
-133 -70 0
-134 -71 0
-135 -72 0
-112 -73 0
-113 -74 0
-114 -75 0
-118 -73 0
-119 -74 0
-120 -75 0
-139 -73 0
-140 -74 0
-141 -75 0
-145 -73 0
-146 -74 0
-147 -75 0
-109 -76 0
-110 -77 0
-111 -78 0
-115 -76 0
-116 -77 0
-117 -78 0
-118 -76 0
-119 -77 0
-120 -78 0
-133 -76 0
-134 -77 0
-135 -78 0
-115 -79 0
-116 -80 0
-117 -81 0
-118 -79 0
-119 -80 0
-120 -81 0
-127 -79 0
-128 -80 0
-129 -81 0
-139 -79 0
-140 -80 0
-141 -81 0
-109 -82 0
-110 -83 0
-111 -84 0
-127 -82 0
-128 -83 0
-129 -84 0
-130 -82 0
-131 -83 0
-132 -84 0
-136 -82 0
-137 -83 0
-138 -84 0
-118 -85 0
-119 -86 0
-120 -87 0
-124 -85 0
-125 -86 0
-126 -87 0
-106 -88 0
-107 -89 0
-108 -90 0
-115 -88 0
-116 -89 0
-117 -90 0
-145 -88 0
-146 -89 0
-147 -90 0
-103 -91 0
-104 -92 0
-105 -93 0
-121 -91 0
-122 -92 0
-123 -93 0
-136 -91 0
-137 -92 0
-138 -93 0
-139 -91 0
-140 -92 0
-141 -93 0
-121 -97 0
-122 -98 0
-123 -99 0
-112 -100 0
-113 -101 0
-114 -102 0
